c CNF formula generated by generate_input.py
c Number of variables: 25
c Number of clauses: 25
c Clause length: random between 1 and 4
p cnf 25 25
-7 25 0
9 16 -6 0
-21 0
12 23 0
-23 0
-14 -4 -7 0
-4 -15 16 0
-17 9 -10 0
12 0
15 25 20 0
-21 4 0
-13 -11 25 0
5 0
-20 -21 15 0
-8 -6 7 -11 0
17 9 0
22 -19 -17 4 0
11 0
13 22 6 0
2 0
2 10 -9 -8 0
22 0
5 13 -15 0
-2 0
-3 0
